WebAPP/DataStorage/CLEWs intro model_copy/res/RunCase/logfile.log
Welcome to the CBC MILP Solver 
Version: 2.7.5 
Build Date: Nov 10 2011 
Revision Number: 1759 

command line - cbc C:\wamp64\www\OSeMOSYS\osemosys.1.0.0\WebAPP\DataStorage\CLEWs intro model_copy\res\RunCase\lp.lp solve -solu C:\wamp64\www\OSeMOSYS\osemosys.1.0.0\WebAPP\DataStorage\CLEWs intro model_copy\res\RunCase\results.txt (default strategy 1)
Presolve 2804 (-13155) rows, 1652 (-28711) columns and 16060 (-50647) elements
Perturbing problem by 0.001 % of 0.090604758 - largest nonzero change 1.0085068e-005 (% 1062.0384) - largest zero change 4.7553429e-006
0  Obj 10818.087 Primal inf 62548.62 (181) Dual inf 72.038503 (64)
131  Obj 4560.2688 Primal inf 207223.68 (367)
262  Obj 6528.0957 Primal inf 168367.12 (415)
393  Obj 13965.296 Primal inf 152451.89 (536)
524  Obj 25742.792 Primal inf 70318.515 (571)
655  Obj 27265.032 Primal inf 48642.959 (527)
786  Obj 28913.79 Primal inf 19742.436 (439)
917  Obj 29468.747 Primal inf 6672.6977 (361)
1048  Obj 29615.176 Primal inf 2669.432 (278)
1179  Obj 29654.219 Primal inf 220.41779 (112)
1265  Obj 29656.045
1265  Obj 29655.495 Dual inf 9.4948959e-006 (10)
1275  Obj 29655.495
Optimal - objective value 29655.495
After Postsolve, objective 29655.495, infeasibilities - dual 0 (0), primal 0 (0)
Optimal objective 29655.49509 - 1275 iterations time 0.052, Presolve 0.03
Total time (CPU seconds):       0.19   (Wallclock seconds):       0.19

