WebAPP/DataStorage/CLEWs intro model_copy/res/RunCase/logfile.txt
GLPSOL: GLPK LP/MIP Solver, v4.65
Parameter(s) specified in the command line:
 --check -m C:\wamp64\www\OSeMOSYS\osemosys.1.0.0\WebAPP\SOLVERs\osemosys_preprocessing.txt
 -d C:\wamp64\www\OSeMOSYS\osemosys.1.0.0\WebAPP\DataStorage\CLEWs intro model_copy\res\RunCase\data_processed.txt
 --wlp C:\wamp64\www\OSeMOSYS\osemosys.1.0.0\WebAPP\DataStorage\CLEWs intro model_copy\res\RunCase\lp.lp
Reading model section from C:\wamp64\www\OSeMOSYS\osemosys.1.0.0\WebAPP\SOLVERs\osemosys_preprocessing.txt...
307 lines were read
Reading data section from C:\wamp64\www\OSeMOSYS\osemosys.1.0.0\WebAPP\DataStorage\CLEWs intro model_copy\res\RunCase\data_processed.txt...
C:\wamp64\www\OSeMOSYS\osemosys.1.0.0\WebAPP\DataStorage\CLEWs intro model_copy\res\RunCase\data_processed.txt:1635: warning: final NL missing before end of file
1635 lines were read
Generating cost...
Generating Acc3_AverageAnnualRateOfActivity...
Generating CAa1_TotalNewCapacity...
Generating CAa2_TotalAnnualCapacity...
Generating CAa5_TotalNewCapacity...
Generating CC1_UndiscountedCapitalInvestment...
Generating E2_AnnualEmissionProduction...
Generating EBa10_EnergyBalanceEachTS4...
Generating NCC1_TotalAnnualMaxNewCapacityConstraint...
Generating NCC2_TotalAnnualMinNewCapacityConstraint...
Generating OC1_OperatingCostsVariable...
Generating OC2_OperatingCostsFixedAnnual...
Generating SI6_SalvageValueStorageAtEndOfPeriod1...
Generating SV3_SalvageValueAtEndOfPeriod3...
Generating SV4_SalvageValueDiscountedToStartYear...
Generating TAC1_TotalModelHorizonTechnologyActivity...
Generating EBb4_EnergyBalanceEachYear4_ICR...
Generating INC1_InputToNewCapacity...
Generating ITC1_InputToTotalCapacity...
Generating AAC1_TotalAnnualTechnologyActivity...
Generating CAa3_TotalActivityOfEachTechnology...
Generating E1_AnnualEmissionProductionByMode...
Generating LU1_TechnologyActivityByModeUL...
Generating LU2_TechnologyActivityByModeLL...
Generating LU3_TechnologyActivityIncreaseByMode...
Generating LU4_TechnologyActivityDecreaseByMode...
Generating AAC2_TotalAnnualTechnologyActivityUpperLimit...
Generating AAC3_TotalAnnualTechnologyActivityLowerLimit...
Generating CAa4_Constraint_Capacity...
Generating CAb1_PlannedMaintenance...
Generating E5_DiscountedEmissionsPenaltyByTechnology...
Generating E6_EmissionsAccounting1...
Generating E8_AnnualEmissionsLimit...
Generating E9_ModelPeriodEmissionsLimit...
Generating EBa11_EnergyBalanceEachTS5...
Generating EBa9_EnergyBalanceEachTS3...
Generating EBb4_EnergyBalanceEachYear4...
Generating RE4_EnergyConstraint...
Generating RM3_ReserveMargin_Constraint...
Generating SV1_SalvageValueAtEndOfPeriod1...
Generating SV2_SalvageValueAtEndOfPeriod2...
Generating TAC2_TotalModelHorizonTechnologyActivityUpperLimit...
Generating TAC3_TotalModelHorizonTechnologyActivityLowerLimit...
Generating TCC1_TotalAnnualMaxCapacityConstraint...
Generating TCC2_TotalAnnualMinCapacityConstraint...
Generating UDC1_UserDefinedConstraintInequality...
Generating UDC2_UserDefinedConstraintEquality...
Model has been successfully generated
glp_mpl_build_prob: row cost; constant term 5818.29637911 ignored
Writing problem data to 'C:\wamp64\www\OSeMOSYS\osemosys.1.0.0\WebAPP\DataStorage\CLEWs intro model_copy\res\RunCase\lp.lp'...
86741 lines were written
--- Problem Characteristics ---
Number of rows               =    15960
Number of columns            =    30363
Number of non-zeros (matrix) =    69347
Number of non-zeros (objrow) =     2640
